NAME:  br17c.08 
TYPE:  AHPP-TW 
COMMENT: br17.atsp + random time windows (N. Ascheuer, 1994) 
DIMENSION: 19 
EDGE_WEIGHT_TYPE: EXPLICIT 
EDGE_WEIGHT_FORMAT: FULL_MATRIX 
TIME_WINDOW_SECTION 
   1 :    0   [   0,    0]
   2 :   30   [ 116,  208]
   3 :   37   [   0, 9999999]
   4 :   16   [ 232,  338]
   5 :   40   [  16,  152]
   6 :   29   [ 459,  579]
   7 :   24   [   0, 9999999]
   8 :   39   [   0, 9999999]
   9 :   23   [   0, 9999999]
  10 :   31   [ 497,  623]
  11 :   31   [   0, 9999999]
  12 :   30   [ 194,  270]
  13 :   24   [ 387,  507]
  14 :   20   [ 217,  307]
  15 :   37   [   0, 9999999]
  16 :   23   [   0, 9999999]
  17 :   16   [   0, 9999999]
  18 :   20   [   0, 9999999]
  19 :    0   [13333332, 19999998]
EDGE_WEIGHT_SECTION 
  0   0   0   0   0   0   0   0   0   0   0   0   0   0   0   0   0   0   0 
  0   0   3   5  48  48   8   8   5   5   3   3   0   3   5   8   8   5   0 
  0   3   0   3  48  48   8   8   5   5   0   0   3   0   3   8   8   5   0 
  0   5   3   0  72  72  48  48  24  24   3   3   5   3   0  48  48  24   0 
  0  48  48  74   0   0   6   6  12  12  48  48  48  48  74   6   6  12   0 
  0  48  48  74   0   0   6   6  12  12  48  48  48  48  74   6   6  12   0 
  0   8   8  50   6   6   0   0   8   8   8   8   8   8  50   0   0   8   0 
  0   8   8  50   6   6   0   0   8   8   8   8   8   8  50   0   0   8   0 
  0   5   5  26  12  12   8   8   0   0   5   5   5   5  26   8   8   0   0 
  0   5   5  26  12  12   8   8   0   0   5   5   5   5  26   8   8   0   0 
  0   3   0   3  48  48   8   8   5   5   0   0   3   0   3   8   8   5   0 
  0   3   0   3  48  48   8   8   5   5   0   0   3   0   3   8   8   5   0 
  0   0   3   5  48  48   8   8   5   5   3   3   0   3   5   8   8   5   0 
  0   3   0   3  48  48   8   8   5   5   0   0   3   0   3   8   8   5   0 
  0   5   3   0  72  72  48  48  24  24   3   3   5   3   0  48  48  24   0 
  0   8   8  50   6   6   0   0   8   8   8   8   8   8  50   0   0   8   0 
  0   8   8  50   6   6   0   0   8   8   8   8   8   8  50   0   0   8   0 
  0   5   5  26  12  12   8   8   0   0   5   5   5   5  26   8   8   0   0 
  0   0   0   0   0   0   0   0   0   0   0   0   0   0   0   0   0   0   0 
EOF 
